p cnf 221 612
1 2 3 4 5 6 7 8 9 10 11 12 13 0
14 15 16 17 18 19 20 21 22 23 24 25 26 0
32 33 34 35 36 37 38 39 27 28 29 30 31 0
40 41 42 43 44 45 46 47 48 49 50 51 52 0
64 65 53 54 55 56 57 58 59 60 61 62 63 0
66 67 68 69 70 71 72 73 74 75 76 77 78 0
79 80 81 82 83 84 85 86 87 88 89 90 91 0
96 97 98 99 100 101 102 103 104 92 93 94 95 0
105 106 107 108 109 110 111 112 113 114 115 116 117 0
128 129 130 118 119 120 121 122 123 124 125 126 127 0
131 132 133 134 135 136 137 138 139 140 141 142 143 0
144 145 146 147 148 149 150 151 152 153 154 155 156 0
160 161 162 163 164 165 166 167 168 169 157 158 159 0
170 171 172 173 174 175 176 177 178 179 180 181 182 0
-14 -1 0
-27 -1 0
-183 -1 0
-14 -27 0
-183 -14 0
-183 -27 0
-40 -53 0
-40 -66 0
-40 -184 0
-53 -66 0
-184 -53 0
-184 -66 0
-79 -92 0
-79 -105 0
-79 -185 0
-92 -105 0
-92 -185 0
-185 -105 0
-118 -131 0
-144 -118 0
-118 -157 0
-118 -170 0
-118 183 0
184 -118 0
185 -118 0
-144 -131 0
-157 -131 0
-131 -170 0
-131 183 0
184 -131 0
185 -131 0
-144 -157 0
-144 -170 0
-144 183 0
-144 184 0
-144 185 0
-157 -170 0
-157 183 0
184 -157 0
185 -157 0
-170 183 0
184 -170 0
185 -170 0
184 183 0
185 183 0
184 185 0
-15 -2 0
-28 -2 0
-186 -2 0
-15 -28 0
-15 -186 0
-28 -186 0
-54 -41 0
-67 -41 0
-187 -41 0
-54 -67 0
-54 -187 0
-187 -67 0
-80 -93 0
-80 -106 0
-80 -188 0
-93 -106 0
-93 -188 0
-188 -106 0
-119 -132 0
-119 -145 0
-119 -158 0
-119 -171 0
-119 186 0
-119 187 0
-119 188 0
-132 -145 0
-158 -132 0
-132 -171 0
186 -132 0
187 -132 0
188 -132 0
-158 -145 0
-171 -145 0
186 -145 0
187 -145 0
188 -145 0
-158 -171 0
186 -158 0
-158 187 0
-158 188 0
186 -171 0
187 -171 0
188 -171 0
186 187 0
186 188 0
187 188 0
-16 -3 0
-29 -3 0
-189 -3 0
-16 -29 0
-16 -189 0
-189 -29 0
-55 -42 0
-68 -42 0
-190 -42 0
-55 -68 0
-55 -190 0
-190 -68 0
-94 -81 0
-107 -81 0
-191 -81 0
-94 -107 0
-191 -94 0
-191 -107 0
-120 -133 0
-120 -146 0
-120 -159 0
-120 -172 0
-120 189 0
-120 190 0
-120 191 0
-133 -146 0
-159 -133 0
-133 -172 0
-133 189 0
-133 190 0
-133 191 0
-159 -146 0
-172 -146 0
189 -146 0
190 -146 0
-146 191 0
-159 -172 0
-159 189 0
-159 190 0
-159 191 0
-172 189 0
-172 190 0
-172 191 0
189 190 0
189 191 0
190 191 0
-4 -17 0
-30 -4 0
-192 -4 0
-30 -17 0
-192 -17 0
-192 -30 0
-56 -43 0
-69 -43 0
-43 -193 0
-56 -69 0
-56 -193 0
-69 -193 0
-95 -82 0
-108 -82 0
-194 -82 0
-95 -108 0
-95 -194 0
-108 -194 0
-134 -121 0
-147 -121 0
-160 -121 0
-173 -121 0
192 -121 0
193 -121 0
194 -121 0
-134 -147 0
-160 -134 0
-134 -173 0
192 -134 0
193 -134 0
194 -134 0
-160 -147 0
-173 -147 0
192 -147 0
193 -147 0
194 -147 0
-160 -173 0
-160 192 0
-160 193 0
-160 194 0
192 -173 0
193 -173 0
194 -173 0
192 193 0
192 194 0
193 194 0
-5 -18 0
-31 -5 0
-5 -195 0
-31 -18 0
-195 -18 0
-31 -195 0
-44 -57 0
-70 -44 0
-44 -196 0
-70 -57 0
-196 -57 0
-70 -196 0
-96 -83 0
-109 -83 0
-197 -83 0
-96 -109 0
-96 -197 0
-197 -109 0
-135 -122 0
-148 -122 0
-122 -161 0
-174 -122 0
195 -122 0
196 -122 0
197 -122 0
-135 -148 0
-135 -161 0
-135 -174 0
-135 195 0
-135 196 0
-135 197 0
-148 -161 0
-174 -148 0
195 -148 0
196 -148 0
-148 197 0
-174 -161 0
195 -161 0
196 -161 0
197 -161 0
-174 195 0
-174 196 0
-174 197 0
195 196 0
195 197 0
196 197 0
-6 -19 0
-32 -6 0
-6 -198 0
-32 -19 0
-198 -19 0
-32 -198 0
-45 -58 0
-71 -45 0
-199 -45 0
-71 -58 0
-199 -58 0
-71 -199 0
-84 -97 0
-110 -84 0
-200 -84 0
-110 -97 0
-200 -97 0
-200 -110 0
-136 -123 0
-149 -123 0
-123 -162 0
-175 -123 0
-123 198 0
-123 199 0
200 -123 0
-136 -149 0
-136 -162 0
-136 -175 0
-136 198 0
-136 199 0
-136 200 0
-149 -162 0
-175 -149 0
-149 198 0
-149 199 0
200 -149 0
-175 -162 0
198 -162 0
-162 199 0
200 -162 0
-175 198 0
-175 199 0
200 -175 0
198 199 0
200 198 0
200 199 0
-7 -20 0
-7 -33 0
-7 -201 0
-20 -33 0
-20 -201 0
-201 -33 0
-46 -59 0
-72 -46 0
-46 -202 0
-72 -59 0
-59 -202 0
-72 -202 0
-85 -98 0
-111 -85 0
-85 -203 0
-111 -98 0
-203 -98 0
-111 -203 0
-124 -137 0
-150 -124 0
-124 -163 0
-176 -124 0
201 -124 0
202 -124 0
203 -124 0
-150 -137 0
-163 -137 0
-176 -137 0
201 -137 0
202 -137 0
203 -137 0
-150 -163 0
-176 -150 0
201 -150 0
202 -150 0
-150 203 0
-176 -163 0
201 -163 0
202 -163 0
203 -163 0
-176 201 0
-176 202 0
-176 203 0
201 202 0
201 203 0
202 203 0
-8 -21 0
-8 -34 0
-8 -204 0
-21 -34 0
-21 -204 0
-204 -34 0
-47 -60 0
-47 -73 0
-47 -205 0
-60 -73 0
-205 -60 0
-205 -73 0
-86 -99 0
-112 -86 0
-86 -206 0
-112 -99 0
-206 -99 0
-112 -206 0
-125 -138 0
-151 -125 0
-125 -164 0
-125 -177 0
-125 204 0
-125 205 0
-125 206 0
-151 -138 0
-164 -138 0
-138 -177 0
204 -138 0
205 -138 0
206 -138 0
-151 -164 0
-151 -177 0
-151 204 0
-151 205 0
-151 206 0
-164 -177 0
204 -164 0
-164 205 0
-164 206 0
204 -177 0
205 -177 0
206 -177 0
204 205 0
204 206 0
205 206 0
-22 -9 0
-35 -9 0
-207 -9 0
-22 -35 0
-207 -22 0
-207 -35 0
-48 -61 0
-48 -74 0
-48 -208 0
-61 -74 0
-208 -61 0
-208 -74 0
-87 -100 0
-87 -113 0
-87 -209 0
-100 -113 0
-100 -209 0
-209 -113 0
-126 -139 0
-152 -126 0
-126 -165 0
-126 -178 0
-126 207 0
208 -126 0
209 -126 0
-152 -139 0
-165 -139 0
-139 -178 0
-139 207 0
208 -139 0
209 -139 0
-152 -165 0
-152 -178 0
-152 207 0
-152 208 0
-152 209 0
-165 -178 0
-165 207 0
208 -165 0
209 -165 0
-178 207 0
208 -178 0
209 -178 0
208 207 0
209 207 0
208 209 0
-23 -10 0
-36 -10 0
-210 -10 0
-23 -36 0
-23 -210 0
-36 -210 0
-62 -49 0
-75 -49 0
-211 -49 0
-62 -75 0
-62 -211 0
-211 -75 0
-88 -101 0
-88 -114 0
-88 -212 0
-101 -114 0
-101 -212 0
-212 -114 0
-127 -140 0
-127 -153 0
-127 -166 0
-127 -179 0
-127 210 0
-127 211 0
-127 212 0
-140 -153 0
-166 -140 0
-140 -179 0
210 -140 0
211 -140 0
212 -140 0
-166 -153 0
-179 -153 0
210 -153 0
211 -153 0
212 -153 0
-166 -179 0
210 -166 0
-166 211 0
-166 212 0
210 -179 0
211 -179 0
212 -179 0
210 211 0
210 212 0
211 212 0
-24 -11 0
-37 -11 0
-213 -11 0
-24 -37 0
-24 -213 0
-213 -37 0
-63 -50 0
-76 -50 0
-214 -50 0
-63 -76 0
-63 -214 0
-214 -76 0
-102 -89 0
-115 -89 0
-215 -89 0
-102 -115 0
-215 -102 0
-215 -115 0
-128 -141 0
-128 -154 0
-128 -167 0
-128 -180 0
-128 213 0
-128 214 0
-128 215 0
-141 -154 0
-167 -141 0
-141 -180 0
-141 213 0
-141 214 0
-141 215 0
-167 -154 0
-180 -154 0
213 -154 0
214 -154 0
-154 215 0
-167 -180 0
-167 213 0
-167 214 0
-167 215 0
-180 213 0
-180 214 0
-180 215 0
213 214 0
213 215 0
214 215 0
-12 -25 0
-38 -12 0
-216 -12 0
-38 -25 0
-216 -25 0
-216 -38 0
-64 -51 0
-77 -51 0
-51 -217 0
-64 -77 0
-64 -217 0
-77 -217 0
-103 -90 0
-116 -90 0
-218 -90 0
-103 -116 0
-103 -218 0
-116 -218 0
-142 -129 0
-155 -129 0
-168 -129 0
-181 -129 0
216 -129 0
217 -129 0
218 -129 0
-142 -155 0
-168 -142 0
-142 -181 0
216 -142 0
217 -142 0
218 -142 0
-168 -155 0
-181 -155 0
216 -155 0
217 -155 0
218 -155 0
-168 -181 0
-168 216 0
-168 217 0
-168 218 0
216 -181 0
217 -181 0
218 -181 0
216 217 0
216 218 0
217 218 0
-13 -26 0
-39 -13 0
-13 -219 0
-39 -26 0
-219 -26 0
-39 -219 0
-52 -65 0
-78 -52 0
-52 -220 0
-78 -65 0
-220 -65 0
-78 -220 0
-104 -91 0
-117 -91 0
-221 -91 0
-104 -117 0
-104 -221 0
-221 -117 0
-143 -130 0
-156 -130 0
-130 -169 0
-182 -130 0
219 -130 0
220 -130 0
221 -130 0
-143 -156 0
-143 -169 0
-143 -182 0
-143 219 0
-143 220 0
-143 221 0
-156 -169 0
-182 -156 0
219 -156 0
220 -156 0
-156 221 0
-182 -169 0
219 -169 0
220 -169 0
221 -169 0
-182 219 0
-182 220 0
-182 221 0
219 220 0
219 221 0
220 221 0
